solving instance mcnd nodes c39 3 6 pardivexp
presolving:
(round 1, fast)       229 del vars, 229 del conss, 0 add conss, 20 chg bounds, 0 chg sides, 0 chg coeffs, 0 upgd conss, 0 impls, 0 clqs
(round 2, exhaustive) 229 del vars, 458 del conss, 0 add conss, 20 chg bounds, 0 chg sides, 0 chg coeffs, 0 upgd conss, 0 impls, 0 clqs
(round 3, exhaustive) 229 del vars, 458 del conss, 0 add conss, 20 chg bounds, 0 chg sides, 0 chg coeffs, 45820 upgd conss, 0 impls, 0 clqs
   (1.7s) probing: 71/249 (28.5%) - 20 fixings, 0 aggregations, 0 implications, 0 bound changes
   (1.7s) probing aborted: 50/50 successive totally useless probings
   (1.7s) symmetry computation started: requiring (bin +, int +, cont +), (fixed: bin -, int -, cont -)
   (2.0s) no symmetry present (symcode time: 0.10)
presolving (4 rounds: 4 fast, 3 medium, 3 exhaustive):
 249 deleted vars, 458 deleted constraints, 0 added constraints, 20 tightened bounds, 0 added holes, 0 changed sides, 0 changed coefficients
 45820 implications, 0 cliques
presolved problem has 46069 variables (229 bin, 0 int, 0 impl, 45840 cont) and 50089 constraints
  45820 constraints of type <varbound>
   4249 constraints of type <linear>
     20 constraints of type <nonlinear>
Presolving Time: 1.77

 time | node  | left  |LP iter|LP it/n|mem/heur|mdpt |vars |cons |rows |cuts |sepa|confs|strbr|  dualbound   | primalbound  |  gap   | compl. 
t35.5s|     1 |     0 | 26116 |     - |  trysol|   0 |  46k|  50k|  50k|   0 |  0 |   0 |   0 | 1.533770e+01 | 2.443820e+05 |  Large | unknown
  917s|     1 |     0 |126787 |     - |   379M |   0 |  46k|  50k|  50k|   0 |  0 |   0 |   0 | 2.374545e+04 | 2.443820e+05 | 929.17%| unknown
t1452s|     1 |     0 |214754 |     - |  trysol|   0 |  46k|  50k|  50k|   0 |  0 |   0 |   0 | 2.374545e+04 | 6.437611e+04 | 171.11%| unknown
 1603s|     1 |     0 |229663 |     - |   395M |   0 |  46k|  50k|  50k|   4 |  1 |   0 |   0 | 2.383957e+04 | 6.437611e+04 | 170.04%| unknown
t1621s|     1 |     0 |229663 |     - |  trysol|   0 |  46k|  50k|  50k|   4 |  1 |   0 |   0 | 2.383957e+04 | 6.104243e+04 | 156.06%| unknown
 1621s|     1 |     0 |229663 |     - |   395M |   0 |  46k|  50k|  50k|   4 |  1 |   0 |   0 | 2.383957e+04 | 6.104243e+04 | 156.06%| unknown
 1621s|     1 |     0 |229663 |     - |   395M |   0 |  46k|  50k|  50k|   4 |  1 |   0 |   0 | 2.383957e+04 | 6.104243e+04 | 156.06%| unknown
 1661s|     1 |     0 |234738 |     - |   400M |   0 |  46k|  50k|  50k|   7 |  2 |   0 |   0 | 2.384192e+04 | 6.104243e+04 | 156.03%| unknown
 1677s|     1 |     0 |236420 |     - |   405M |   0 |  46k|  50k|  50k|   9 |  3 |   0 |   0 | 2.384466e+04 | 6.104243e+04 | 156.00%| unknown
r1716s|     1 |     0 |236420 |     - |simplero|   0 |  46k|  50k|  50k|   9 |  3 |   0 |   0 | 2.384466e+04 | 5.663669e+04 | 137.52%| unknown
 1729s|     1 |     0 |237631 |     - |   413M |   0 |  46k|  50k|  50k|  10 |  4 |   0 |   0 | 2.384874e+04 | 5.663669e+04 | 137.48%| unknown
 1730s|     1 |     0 |237631 |     - |   413M |   0 |  46k|  50k|  50k|  10 |  4 |   0 |   0 | 2.384874e+04 | 5.663669e+04 | 137.48%| unknown
 3012s|     1 |     0 |429596 |     - |   420M |   0 |  46k|  50k|  50k|  10 |  5 |   0 |   0 | 2.438771e+04 | 5.663669e+04 | 132.23%| unknown
 3140s|     1 |     0 |442194 |     - |   421M |   0 |  46k|  50k|  50k|  28 |  6 |   0 |   0 | 2.457744e+04 | 5.663669e+04 | 130.44%| unknown
 3287s|     1 |     0 |456364 |     - |   425M |   0 |  46k|  50k|  50k|  44 |  7 |   0 |   0 | 2.479163e+04 | 5.663669e+04 | 128.45%| unknown
 time | node  | left  |LP iter|LP it/n|mem/heur|mdpt |vars |cons |rows |cuts |sepa|confs|strbr|  dualbound   | primalbound  |  gap   | compl. 
 3404s|     1 |     0 |467983 |     - |   430M |   0 |  46k|  50k|  50k|  51 |  8 |   0 |   0 | 2.481297e+04 | 5.663669e+04 | 128.25%| unknown
 3536s|     1 |     0 |481493 |     - |   435M |   0 |  46k|  50k|  50k|  58 |  9 |   0 |   0 | 2.494025e+04 | 5.663669e+04 | 127.09%| unknown
 3600s|     1 |     0 |487786 |     - |   440M |   0 |  46k|  50k|  50k|  62 | 10 |   0 |   0 | 2.494025e+04 | 5.663669e+04 | 127.09%| unknown
(node 1) LP solver hit time limit in LP 59 -- using pseudo solution instead

SCIP Status        : solving was interrupted [time limit reached]
Solving Time (sec) : 3600.01
Solving Nodes      : 1
Primal Bound       : +5.66366936082727e+04 (4 solutions)
Dual Bound         : +2.49402468701309e+04
Gap                : 127.09 %
f0 = 1.1213283379742325
f0 = 0.7216731553602851
f0 = 0.6572695608110178
f0 = 0.9069437698170819
f0 = 0.8434224162890374
f0 = 0.9395866876023271
f0 = 0.593748207282973
f0 = 0.7596095192728672
f0 = 0.5266978896700372
f0 = 0.575221145837293
f0 = 0.5125820333304715
f0 = 0.8522448265012657
f0 = 0.6484471505987889
f0 = 0.7578450372304213
f0 = 1.0569247434249653
f0 = 0.6299200891531095
f0 = 0.7869589909307754
f0 = 0.5902192431980814
f0 = 0.945762374750887
f0 = 0.9113549749231966
primal_bound = 56636.693608272704, dual_bound = 24940.246870130934, gap = 55.96450766948018, time = 3603.26
